unsat
(:SPACER-inductive-gen                15
 :SPACER-inductive-gen-weaken-fail    19
 :SPACER-inductive-level              3
 :SPACER-max-depth                    5
 :SPACER-max-query-lvl                5
 :SPACER-non-local-gen                2
 :SPACER-num-active-lemmas            9
 :SPACER-num-ctp-blocked              3
 :SPACER-num-invariants               9
 :SPACER-num-is_invariant             26
 :SPACER-num-lemmas                   23
 :SPACER-num-pobs                     12
 :SPACER-num-propagations             14
 :SPACER-num-queries                  14
 :SPACER-subsume-pob                  1
 :SPACER-subsume-success              3
 :added-eqs                           1504
 :arith-assert-diseq                  204
 :arith-assert-lower                  1764
 :arith-assert-upper                  1930
 :arith-bound-prop                    122
 :arith-conflicts                     36
 :arith-eq-adapter                    314
 :arith-fixed-eqs                     312
 :arith-num-rows                      48
 :arith-offset-eqs                    60
 :arith-pivots                        324
 :arith-row-summations                1226
 :arith-tableau-max-columns           102
 :arith-tableau-max-rows              48
 :conflicts                           256
 :decisions                           1726
 :del-clause                          382
 :final-checks                        74
 :iuc_solver.num_proxies              60
 :max-memory                          31.46
 :memory                              31.02
 :minimized-lits                      8
 :mk-bool-var                         1514
 :mk-clause                           960
 :num-allocs                          10910082
 :num-checks                          232
 :pool_solver.checks                  116
 :pool_solver.checks.sat              37
 :propagations                        9452
 :rlimit-count                        64260
 :time                                0.08
 :time.iuc_solver.get_iuc             0.01
 :time.iuc_solver.get_iuc.hyp_reduce1 0.00
 :time.iuc_solver.get_iuc.hyp_reduce2 0.00
 :time.iuc_solver.get_iuc.learn_core  0.00
 :time.pool_solver.proof              0.00
 :time.pool_solver.smt.total          0.03
 :time.pool_solver.smt.total.sat      0.01
 :time.spacer.init_rules              0.00
 :time.spacer.mbp                     0.00
 :time.spacer.solve                   0.07
 :time.spacer.solve.propagate         0.01
 :time.spacer.solve.reach             0.06
 :time.spacer.solve.reach.children    0.00
 :time.spacer.solve.reach.cluster     0.01
 :time.spacer.solve.reach.gen.global  0.00
 :time.spacer.solve.reach.gen.ind     0.01)
(:max-memory   31.46
 :memory       31.02
 :num-allocs   10910082
 :rlimit-count 64260
 :time         0.08
 :total-time   0.10)
